sat
(:max-memory         18.04
 :memory             17.93
 :nlsat-propagations 9
 :nlsat-stages       5
 :num-allocs         5406
 :rlimit-count       1284
 :time               0.00
 :total-time         0.01)
